# Objective value = 280
s_1_1 300
e_1_1 480
alpha_1_1 1
l_1_1 0
delta_1_1 0
beta_1_1_1 1
x_1_1_1_1_2 0
x_1_1_1_2_1 0
x_1_1_1_3_1 0
x_1_1_1_3_2 0
x_1_1_1_4_1 0
x_1_1_1_4_2 0
x_1_1_1_5_1 0
x_1_1_1_6_1 0
x_1_1_1_7_1 1
beta_2_1_1 0
x_2_1_1_1_2 0
x_2_1_1_2_1 0
x_2_1_1_3_1 0
x_2_1_1_3_2 0
x_2_1_1_4_1 0
x_2_1_1_4_2 0
x_2_1_1_5_1 0
x_2_1_1_6_1 0
x_2_1_1_7_1 0
y_1_1_1 1
z_1_1_1 0
lambda_1_1_1 0
y_2_1_1 1
z_2_1_1 0
lambda_2_1_1 0
y_3_1_1 1
z_3_1_1 0
lambda_3_1_1 0
y_4_1_1 1
z_4_1_1 0
lambda_4_1_1 0
y_5_1_1 1
z_5_1_1 0
lambda_5_1_1 0
y_6_1_1 0
z_6_1_1 0
lambda_6_1_1 0
y_7_1_1 0
z_7_1_1 0
lambda_7_1_1 0
y_8_1_1 0
z_8_1_1 0
lambda_8_1_1 0
y_9_1_1 0
z_9_1_1 0
lambda_9_1_1 0
y_10_1_1 0
z_10_1_1 0
lambda_10_1_1 0
y_11_1_1 0
z_11_1_1 0
lambda_11_1_1 0
y_12_1_1 0
z_12_1_1 0
lambda_12_1_1 0
y_13_1_1 0
z_13_1_1 0
lambda_13_1_1 0
y_14_1_1 0
z_14_1_1 0
lambda_14_1_1 0
y_15_1_1 0
z_15_1_1 0
lambda_15_1_1 0
y_16_1_1 1
z_16_1_1 0
lambda_16_1_1 0
y_17_1_1 1
z_17_1_1 0
lambda_17_1_1 0
y_18_1_1 1
z_18_1_1 0
lambda_18_1_1 0
y_19_1_1 0
z_19_1_1 0
lambda_19_1_1 0
y_20_1_1 0
z_20_1_1 0
lambda_20_1_1 0
y_21_1_1 0
z_21_1_1 0
lambda_21_1_1 0
s_1_2 840
e_1_2 1140
alpha_1_2 1
l_1_2 0
delta_1_2 0
beta_1_1_2 1
x_1_1_2_1_1 0
x_1_1_2_2_1 0
x_1_1_2_3_1 0
x_1_1_2_3_2 0
x_1_1_2_4_1 0
x_1_1_2_4_2 0
x_1_1_2_5_1 1
x_1_1_2_6_1 0
x_1_1_2_7_1 0
beta_2_1_2 0
x_2_1_2_1_1 0
x_2_1_2_2_1 0
x_2_1_2_3_1 0
x_2_1_2_3_2 0
x_2_1_2_4_1 0
x_2_1_2_4_2 0
x_2_1_2_5_1 0
x_2_1_2_6_1 0
x_2_1_2_7_1 0
y_1_1_2 1
z_1_1_2 0
lambda_1_1_2 0
y_2_1_2 1
z_2_1_2 0
lambda_2_1_2 0
y_3_1_2 1
z_3_1_2 0
lambda_3_1_2 0
y_4_1_2 1
z_4_1_2 0
lambda_4_1_2 0
y_5_1_2 1
z_5_1_2 0
lambda_5_1_2 0
y_6_1_2 0
z_6_1_2 0
lambda_6_1_2 0
y_7_1_2 0
z_7_1_2 0
lambda_7_1_2 0
y_8_1_2 0
z_8_1_2 0
lambda_8_1_2 0
y_9_1_2 0
z_9_1_2 0
lambda_9_1_2 0
y_10_1_2 0
z_10_1_2 0
lambda_10_1_2 0
y_11_1_2 0
z_11_1_2 0
lambda_11_1_2 0
y_12_1_2 0
z_12_1_2 0
lambda_12_1_2 0
y_13_1_2 0
z_13_1_2 0
lambda_13_1_2 0
y_14_1_2 0
z_14_1_2 0
lambda_14_1_2 0
y_15_1_2 0
z_15_1_2 0
lambda_15_1_2 0
y_16_1_2 0
z_16_1_2 0
lambda_16_1_2 0
y_17_1_2 0
z_17_1_2 0
lambda_17_1_2 0
y_18_1_2 0
z_18_1_2 0
lambda_18_1_2 0
y_19_1_2 0
z_19_1_2 0
lambda_19_1_2 0
y_20_1_2 0
z_20_1_2 0
lambda_20_1_2 0
y_21_1_2 0
z_21_1_2 0
lambda_21_1_2 0
s_2_1 696
e_2_1 1116
alpha_2_1 1
l_2_1 1
delta_2_1 1
beta_1_2_1 0
x_1_2_1_1_1 0
x_1_2_1_1_2 0
x_1_2_1_3_1 0
x_1_2_1_3_2 0
x_1_2_1_4_1 0
x_1_2_1_4_2 0
x_1_2_1_5_1 0
x_1_2_1_6_1 0
x_1_2_1_7_1 0
beta_2_2_1 1
x_2_2_1_1_1 0
x_2_2_1_1_2 0
x_2_2_1_3_1 0
x_2_2_1_3_2 0
x_2_2_1_4_1 0
x_2_2_1_4_2 0
x_2_2_1_5_1 0
x_2_2_1_6_1 1
x_2_2_1_7_1 0
y_1_2_1 0
z_1_2_1 1
lambda_1_2_1 0
y_2_2_1 0
z_2_2_1 1
lambda_2_2_1 0
y_3_2_1 0
z_3_2_1 1
lambda_3_2_1 0
y_4_2_1 0
z_4_2_1 1
lambda_4_2_1 0
y_5_2_1 0
z_5_2_1 1
lambda_5_2_1 0
y_6_2_1 1
z_6_2_1 1
lambda_6_2_1 0
y_7_2_1 1
z_7_2_1 1
lambda_7_2_1 0
y_8_2_1 1
z_8_2_1 1
lambda_8_2_1 0
y_9_2_1 1
z_9_2_1 1
lambda_9_2_1 0
y_10_2_1 1
z_10_2_1 1
lambda_10_2_1 0
y_11_2_1 1
z_11_2_1 1
lambda_11_2_1 0
y_12_2_1 1
z_12_2_1 1
lambda_12_2_1 0
y_13_2_1 0
z_13_2_1 1
lambda_13_2_1 0
y_14_2_1 0
z_14_2_1 1
lambda_14_2_1 0
y_15_2_1 0
z_15_2_1 1
lambda_15_2_1 0
y_16_2_1 0
z_16_2_1 1
lambda_16_2_1 0
y_17_2_1 0
z_17_2_1 1
lambda_17_2_1 0
y_18_2_1 0
z_18_2_1 1
lambda_18_2_1 0
y_19_2_1 0
z_19_2_1 1
lambda_19_2_1 0
y_20_2_1 0
z_20_2_1 1
lambda_20_2_1 0
y_21_2_1 0
z_21_2_1 1
lambda_21_2_1 0
s_3_1 1152
e_3_1 1512
alpha_3_1 1
l_3_1 1
delta_3_1 1
beta_1_3_1 1
x_1_3_1_1_1 0
x_1_3_1_1_2 1
x_1_3_1_2_1 0
x_1_3_1_3_2 0
x_1_3_1_4_1 0
x_1_3_1_4_2 0
x_1_3_1_5_1 0
x_1_3_1_6_1 0
x_1_3_1_7_1 0
beta_2_3_1 0
x_2_3_1_1_1 0
x_2_3_1_1_2 0
x_2_3_1_2_1 0
x_2_3_1_3_2 0
x_2_3_1_4_1 0
x_2_3_1_4_2 0
x_2_3_1_5_1 0
x_2_3_1_6_1 0
x_2_3_1_7_1 0
y_1_3_1 0
z_1_3_1 1
lambda_1_3_1 0
y_2_3_1 0
z_2_3_1 1
lambda_2_3_1 0
y_3_3_1 0
z_3_3_1 1
lambda_3_3_1 0
y_4_3_1 1
z_4_3_1 1
lambda_4_3_1 0
y_5_3_1 1
z_5_3_1 1
lambda_5_3_1 0
y_6_3_1 1
z_6_3_1 1
lambda_6_3_1 0
y_7_3_1 1
z_7_3_1 1
lambda_7_3_1 0
y_8_3_1 0
z_8_3_1 1
lambda_8_3_1 0
y_9_3_1 0
z_9_3_1 1
lambda_9_3_1 0
y_10_3_1 0
z_10_3_1 1
lambda_10_3_1 0
y_11_3_1 0
z_11_3_1 1
lambda_11_3_1 0
y_12_3_1 0
z_12_3_1 1
lambda_12_3_1 0
y_13_3_1 1
z_13_3_1 1
lambda_13_3_1 0
y_14_3_1 1
z_14_3_1 1
lambda_14_3_1 0
y_15_3_1 1
z_15_3_1 1
lambda_15_3_1 0
y_16_3_1 1
z_16_3_1 1
lambda_16_3_1 0
y_17_3_1 0
z_17_3_1 1
lambda_17_3_1 0
y_18_3_1 0
z_18_3_1 1
lambda_18_3_1 0
y_19_3_1 0
z_19_3_1 1
lambda_19_3_1 0
y_20_3_1 0
z_20_3_1 1
lambda_20_3_1 0
y_21_3_1 0
z_21_3_1 1
lambda_21_3_1 0
s_3_2 1512
e_3_2 1992
alpha_3_2 1
l_3_2 0
delta_3_2 0
beta_1_3_2 1
x_1_3_2_1_1 0
x_1_3_2_1_2 0
x_1_3_2_2_1 0
x_1_3_2_3_1 1
x_1_3_2_4_1 0
x_1_3_2_4_2 0
x_1_3_2_5_1 0
x_1_3_2_6_1 0
x_1_3_2_7_1 0
beta_2_3_2 0
x_2_3_2_1_1 0
x_2_3_2_1_2 0
x_2_3_2_2_1 0
x_2_3_2_3_1 0
x_2_3_2_4_1 0
x_2_3_2_4_2 0
x_2_3_2_5_1 0
x_2_3_2_6_1 0
x_2_3_2_7_1 0
y_1_3_2 0
z_1_3_2 0
lambda_1_3_2 0
y_2_3_2 0
z_2_3_2 0
lambda_2_3_2 0
y_3_3_2 0
z_3_3_2 0
lambda_3_3_2 0
y_4_3_2 1
z_4_3_2 0
lambda_4_3_2 0
y_5_3_2 1
z_5_3_2 0
lambda_5_3_2 0
y_6_3_2 1
z_6_3_2 0
lambda_6_3_2 0
y_7_3_2 1
z_7_3_2 0
lambda_7_3_2 0
y_8_3_2 0
z_8_3_2 0
lambda_8_3_2 0
y_9_3_2 0
z_9_3_2 0
lambda_9_3_2 0
y_10_3_2 0
z_10_3_2 0
lambda_10_3_2 0
y_11_3_2 0
z_11_3_2 0
lambda_11_3_2 0
y_12_3_2 0
z_12_3_2 0
lambda_12_3_2 0
y_13_3_2 1
z_13_3_2 0
lambda_13_3_2 0
y_14_3_2 1
z_14_3_2 0
lambda_14_3_2 0
y_15_3_2 1
z_15_3_2 0
lambda_15_3_2 0
y_16_3_2 1
z_16_3_2 0
lambda_16_3_2 0
y_17_3_2 0
z_17_3_2 0
lambda_17_3_2 0
y_18_3_2 0
z_18_3_2 0
lambda_18_3_2 0
y_19_3_2 0
z_19_3_2 0
lambda_19_3_2 0
y_20_3_2 0
z_20_3_2 0
lambda_20_3_2 0
y_21_3_2 0
z_21_3_2 0
lambda_21_3_2 0
s_4_1 1116
e_4_1 1356
alpha_4_1 1
l_4_1 0
delta_4_1 0
beta_1_4_1 0
x_1_4_1_1_1 0
x_1_4_1_1_2 0
x_1_4_1_2_1 0
x_1_4_1_3_1 0
x_1_4_1_3_2 0
x_1_4_1_4_2 0
x_1_4_1_5_1 0
x_1_4_1_6_1 0
x_1_4_1_7_1 0
beta_2_4_1 1
x_2_4_1_1_1 0
x_2_4_1_1_2 0
x_2_4_1_2_1 1
x_2_4_1_3_1 0
x_2_4_1_3_2 0
x_2_4_1_4_2 0
x_2_4_1_5_1 0
x_2_4_1_6_1 0
x_2_4_1_7_1 0
y_1_4_1 0
z_1_4_1 0
lambda_1_4_1 0
y_2_4_1 0
z_2_4_1 0
lambda_2_4_1 0
y_3_4_1 0
z_3_4_1 0
lambda_3_4_1 0
y_4_4_1 0
z_4_4_1 0
lambda_4_4_1 0
y_5_4_1 0
z_5_4_1 0
lambda_5_4_1 0
y_6_4_1 1
z_6_4_1 0
lambda_6_4_1 0
y_7_4_1 1
z_7_4_1 0
lambda_7_4_1 0
y_8_4_1 1
z_8_4_1 0
lambda_8_4_1 0
y_9_4_1 1
z_9_4_1 0
lambda_9_4_1 0
y_10_4_1 1
z_10_4_1 0
lambda_10_4_1 0
y_11_4_1 1
z_11_4_1 0
lambda_11_4_1 0
y_12_4_1 1
z_12_4_1 0
lambda_12_4_1 0
y_13_4_1 0
z_13_4_1 0
lambda_13_4_1 0
y_14_4_1 0
z_14_4_1 0
lambda_14_4_1 0
y_15_4_1 0
z_15_4_1 0
lambda_15_4_1 0
y_16_4_1 0
z_16_4_1 0
lambda_16_4_1 0
y_17_4_1 0
z_17_4_1 0
lambda_17_4_1 0
y_18_4_1 0
z_18_4_1 0
lambda_18_4_1 0
y_19_4_1 0
z_19_4_1 0
lambda_19_4_1 0
y_20_4_1 0
z_20_4_1 0
lambda_20_4_1 0
y_21_4_1 0
z_21_4_1 0
lambda_21_4_1 0
s_4_2 1356
e_4_2 1896
alpha_4_2 1
l_4_2 0
delta_4_2 0
beta_1_4_2 0
x_1_4_2_1_1 0
x_1_4_2_1_2 0
x_1_4_2_2_1 0
x_1_4_2_3_1 0
x_1_4_2_3_2 0
x_1_4_2_4_1 0
x_1_4_2_5_1 0
x_1_4_2_6_1 0
x_1_4_2_7_1 0
beta_2_4_2 1
x_2_4_2_1_1 0
x_2_4_2_1_2 0
x_2_4_2_2_1 0
x_2_4_2_3_1 0
x_2_4_2_3_2 0
x_2_4_2_4_1 1
x_2_4_2_5_1 0
x_2_4_2_6_1 0
x_2_4_2_7_1 0
y_1_4_2 0
z_1_4_2 0
lambda_1_4_2 0
y_2_4_2 0
z_2_4_2 0
lambda_2_4_2 0
y_3_4_2 0
z_3_4_2 0
lambda_3_4_2 0
y_4_4_2 0
z_4_4_2 0
lambda_4_4_2 0
y_5_4_2 0
z_5_4_2 0
lambda_5_4_2 0
y_6_4_2 1
z_6_4_2 0
lambda_6_4_2 0
y_7_4_2 1
z_7_4_2 0
lambda_7_4_2 0
y_8_4_2 1
z_8_4_2 0
lambda_8_4_2 0
y_9_4_2 1
z_9_4_2 0
lambda_9_4_2 0
y_10_4_2 1
z_10_4_2 0
lambda_10_4_2 0
y_11_4_2 1
z_11_4_2 0
lambda_11_4_2 0
y_12_4_2 1
z_12_4_2 0
lambda_12_4_2 0
y_13_4_2 0
z_13_4_2 0
lambda_13_4_2 0
y_14_4_2 0
z_14_4_2 0
lambda_14_4_2 0
y_15_4_2 0
z_15_4_2 0
lambda_15_4_2 0
y_16_4_2 0
z_16_4_2 0
lambda_16_4_2 0
y_17_4_2 0
z_17_4_2 0
lambda_17_4_2 0
y_18_4_2 0
z_18_4_2 0
lambda_18_4_2 0
y_19_4_2 0
z_19_4_2 0
lambda_19_4_2 0
y_20_4_2 0
z_20_4_2 0
lambda_20_4_2 0
y_21_4_2 0
z_21_4_2 0
lambda_21_4_2 0
s_5_1 480
e_5_1 840
alpha_5_1 1
l_5_1 0
delta_5_1 0
beta_1_5_1 1
x_1_5_1_1_1 1
x_1_5_1_1_2 0
x_1_5_1_2_1 0
x_1_5_1_3_1 0
x_1_5_1_3_2 0
x_1_5_1_4_1 0
x_1_5_1_4_2 0
x_1_5_1_6_1 0
x_1_5_1_7_1 0
beta_2_5_1 0
x_2_5_1_1_1 0
x_2_5_1_1_2 0
x_2_5_1_2_1 0
x_2_5_1_3_1 0
x_2_5_1_3_2 0
x_2_5_1_4_1 0
x_2_5_1_4_2 0
x_2_5_1_6_1 0
x_2_5_1_7_1 0
y_1_5_1 1
z_1_5_1 0
lambda_1_5_1 0
y_2_5_1 1
z_2_5_1 0
lambda_2_5_1 0
y_3_5_1 1
z_3_5_1 0
lambda_3_5_1 0
y_4_5_1 1
z_4_5_1 0
lambda_4_5_1 0
y_5_5_1 1
z_5_5_1 0
lambda_5_5_1 0
y_6_5_1 0
z_6_5_1 0
lambda_6_5_1 0
y_7_5_1 0
z_7_5_1 0
lambda_7_5_1 0
y_8_5_1 0
z_8_5_1 0
lambda_8_5_1 0
y_9_5_1 0
z_9_5_1 0
lambda_9_5_1 0
y_10_5_1 0
z_10_5_1 0
lambda_10_5_1 0
y_11_5_1 0
z_11_5_1 0
lambda_11_5_1 0
y_12_5_1 0
z_12_5_1 0
lambda_12_5_1 0
y_13_5_1 0
z_13_5_1 0
lambda_13_5_1 0
y_14_5_1 0
z_14_5_1 0
lambda_14_5_1 0
y_15_5_1 0
z_15_5_1 0
lambda_15_5_1 0
y_16_5_1 1
z_16_5_1 0
lambda_16_5_1 0
y_17_5_1 1
z_17_5_1 0
lambda_17_5_1 0
y_18_5_1 1
z_18_5_1 0
lambda_18_5_1 0
y_19_5_1 0
z_19_5_1 0
lambda_19_5_1 0
y_20_5_1 0
z_20_5_1 0
lambda_20_5_1 0
y_21_5_1 0
z_21_5_1 0
lambda_21_5_1 0
s_6_1 96
e_6_1 696
alpha_6_1 1
l_6_1 0
delta_6_1 0
beta_1_6_1 0
x_1_6_1_1_1 0
x_1_6_1_1_2 0
x_1_6_1_2_1 0
x_1_6_1_3_1 0
x_1_6_1_3_2 0
x_1_6_1_4_1 0
x_1_6_1_4_2 0
x_1_6_1_5_1 0
x_1_6_1_7_1 0
beta_2_6_1 1
x_2_6_1_1_1 0
x_2_6_1_1_2 0
x_2_6_1_2_1 0
x_2_6_1_3_1 0
x_2_6_1_3_2 0
x_2_6_1_4_1 0
x_2_6_1_4_2 0
x_2_6_1_5_1 0
x_2_6_1_7_1 0
y_1_6_1 0
z_1_6_1 0
lambda_1_6_1 0
y_2_6_1 0
z_2_6_1 0
lambda_2_6_1 0
y_3_6_1 0
z_3_6_1 0
lambda_3_6_1 0
y_4_6_1 0
z_4_6_1 0
lambda_4_6_1 0
y_5_6_1 0
z_5_6_1 0
lambda_5_6_1 0
y_6_6_1 0
z_6_6_1 0
lambda_6_6_1 0
y_7_6_1 0
z_7_6_1 0
lambda_7_6_1 0
y_8_6_1 0
z_8_6_1 0
lambda_8_6_1 0
y_9_6_1 1
z_9_6_1 0
lambda_9_6_1 0
y_10_6_1 1
z_10_6_1 0
lambda_10_6_1 0
y_11_6_1 1
z_11_6_1 0
lambda_11_6_1 0
y_12_6_1 1
z_12_6_1 0
lambda_12_6_1 0
y_13_6_1 0
z_13_6_1 0
lambda_13_6_1 0
y_14_6_1 0
z_14_6_1 0
lambda_14_6_1 0
y_15_6_1 0
z_15_6_1 0
lambda_15_6_1 0
y_16_6_1 1
z_16_6_1 0
lambda_16_6_1 0
y_17_6_1 0
z_17_6_1 0
lambda_17_6_1 0
y_18_6_1 0
z_18_6_1 0
lambda_18_6_1 0
y_19_6_1 1
z_19_6_1 0
lambda_19_6_1 0
y_20_6_1 1
z_20_6_1 0
lambda_20_6_1 0
y_21_6_1 0
z_21_6_1 0
lambda_21_6_1 0
s_7_1 0
e_7_1 300
alpha_7_1 1
l_7_1 0
delta_7_1 0
beta_1_7_1 1
x_1_7_1_1_1 0
x_1_7_1_1_2 0
x_1_7_1_2_1 0
x_1_7_1_3_1 0
x_1_7_1_3_2 0
x_1_7_1_4_1 0
x_1_7_1_4_2 0
x_1_7_1_5_1 0
x_1_7_1_6_1 0
beta_2_7_1 0
x_2_7_1_1_1 0
x_2_7_1_1_2 0
x_2_7_1_2_1 0
x_2_7_1_3_1 0
x_2_7_1_3_2 0
x_2_7_1_4_1 0
x_2_7_1_4_2 0
x_2_7_1_5_1 0
x_2_7_1_6_1 0
y_1_7_1 1
z_1_7_1 0
lambda_1_7_1 0
y_2_7_1 1
z_2_7_1 0
lambda_2_7_1 0
y_3_7_1 1
z_3_7_1 0
lambda_3_7_1 0
y_4_7_1 1
z_4_7_1 0
lambda_4_7_1 0
y_5_7_1 1
z_5_7_1 0
lambda_5_7_1 0
y_6_7_1 0
z_6_7_1 0
lambda_6_7_1 0
y_7_7_1 0
z_7_7_1 0
lambda_7_7_1 0
y_8_7_1 0
z_8_7_1 0
lambda_8_7_1 0
y_9_7_1 0
z_9_7_1 0
lambda_9_7_1 0
y_10_7_1 0
z_10_7_1 0
lambda_10_7_1 0
y_11_7_1 0
z_11_7_1 0
lambda_11_7_1 0
y_12_7_1 0
z_12_7_1 0
lambda_12_7_1 0
y_13_7_1 0
z_13_7_1 0
lambda_13_7_1 0
y_14_7_1 0
z_14_7_1 0
lambda_14_7_1 0
y_15_7_1 0
z_15_7_1 0
lambda_15_7_1 0
y_16_7_1 1
z_16_7_1 0
lambda_16_7_1 0
y_17_7_1 1
z_17_7_1 0
lambda_17_7_1 0
y_18_7_1 1
z_18_7_1 0
lambda_18_7_1 0
y_19_7_1 0
z_19_7_1 0
lambda_19_7_1 0
y_20_7_1 0
z_20_7_1 0
lambda_20_7_1 0
y_21_7_1 0
z_21_7_1 0
lambda_21_7_1 0
h_1_1 12
q_1_1 12
h_1_2 24
q_1_2 34
h_2_1 0
q_2_1 29
h_3_1 24
q_3_1 47
h_3_2 24
q_3_2 62
h_4_1 12
q_4_1 46
h_4_2 12
q_4_2 56
h_5_1 24
q_5_1 19
h_6_1 0
q_6_1 4
h_7_1 0
q_7_1 0
